boxSize = 3;

horizontal =
[| ">","<",">","<","<",">"
| ">","<","<","<",">",">"
| "<",">","<",">",">","<"
| ">","<",">","<","<","<"
| "<","<","<",">",">","<"
| ">",">",">","<","<",">"
| ">",">","<",">",">","<"
| "<",">","<",">","<",">"
| "<",">",">","<","<",">" |];

vertical =
[| "^","v","^","v","v","^","^","^","^"
| "v","^","^","^","^","v","^","v","^"
| "v","^","^","v","^","v","^","v","v"
| "v","v","v","^","v","^","v","^","^"
| "v","^","v","^","^","^","v","^","v"
| "^","^","^","v","v","^","v","v","v" |];